
Gurobi 11.0.3 (linux64) logging started Mon 18 Nov 2024 09:47:58 PM CST

Set parameter LogFile to value "/home/dlcole3/graph_abstraction/hierarchical_graphs/git_storage/CS1/HP_low_reserves/gurobi_logs/serial/logfile_ST13_6.log"

Gurobi 11.0.3 (linux64) logging started Mon 18 Nov 2024 09:49:50 PM CST

Set parameter LogFile to value "/home/dlcole3/graph_abstraction/hierarchical_graphs/git_storage/CS1/HP_low_reserves/gurobi_logs/serial/logfile_ST13_6.log"
Gurobi Optimizer version 11.0.3 build v11.0.3rc0 (linux64 - "Ubuntu 18.04.3 LTS")

CPU model: Intel(R) Xeon(R) CPU E5-2698 v4 @ 2.20GHz, instruction set [SSE2|AVX|AVX2]
Thread count: 40 physical cores, 80 logical processors, using up to 20 threads

Optimize a model with 29168 rows, 50688 columns and 136175 nonzeros
Model fingerprint: 0xa146d88b
Variable types: 46944 continuous, 3744 integer (3744 binary)
Coefficient statistics:
  Matrix range     [6e-01, 2e+04]
  Objective range  [2e+00, 2e+04]
  Bounds range     [5e-02, 2e+05]
  RHS range        [5e-02, 7e+03]
Presolve removed 14398 rows and 38887 columns
Presolve time: 0.35s
Presolved: 14770 rows, 11801 columns, 62632 nonzeros
Variable types: 8833 continuous, 2968 integer (2968 binary)
Found heuristic solution: objective 175200.35808
Found heuristic solution: objective 141339.13452

Root relaxation: objective 3.632787e+04, 7355 iterations, 0.32 seconds (0.22 work units)

    Nodes    |    Current Node    |     Objective Bounds      |     Work
 Expl Unexpl |  Obj  Depth IntInf | Incumbent    BestBd   Gap | It/Node Time

     0     0 36327.8742    0    5 141339.135 36327.8742  74.3%     -    1s
H    0     0                    44689.387021 36327.8742  18.7%     -    1s
H    0     0                    44689.386906 36327.8742  18.7%     -    1s
     0     0 36327.8742    0    5 44689.3869 36327.8742  18.7%     -    1s
     0     2 36327.8742    0    5 44689.3869 36327.8742  18.7%     -    1s
H   32    52                    44689.386825 36327.9020  18.7%  17.8    2s
H   34    52                    44689.386569 36327.9020  18.7%  17.1    2s
H   35    52                    44689.386551 36327.9020  18.7%  16.9    2s
H   36    52                    44689.386028 36327.9020  18.7%  17.4    2s
H   38    52                    44689.385858 36327.9020  18.7%  17.3    2s
H   40    52                    37689.522123 36327.9020  3.61%  17.1    2s
H   47    52                    37603.041223 36327.9020  3.39%  14.7    2s
H  101    88                    37263.285073 36327.9020  2.51%  11.5    2s
H  105    88                    37258.922750 36327.9020  2.50%  11.1    2s
H  126   101                    36737.619901 36327.9020  1.12%  10.4    2s
*  270    15              13    36737.291703 36430.3168  0.84%   6.3    2s
*  284    15              12    36737.261772 36430.3168  0.84%   6.1    2s

Explored 326 nodes (9203 simplex iterations) in 2.72 seconds (1.76 work units)
Thread count was 20 (of 80 available processors)

Solution count 10: 36737.3 36737.3 36737.3 ... 141339

Optimal solution found (tolerance 3.00e-03)
Best objective 3.673726177278e+04, best bound 3.672851112930e+04, gap 0.0238%

User-callback calls 2164, time in user-callback 0.00 sec
